GLPSOL: GLPK LP/MIP Solver, v4.52
Parameter(s) specified in the command line:
 --model utils_GLPK/modelos/MTAV_empate.mod --data utils_GLPK/datos/MTAV_pref_empate.dat
 --output utils_GLPK/soluciones/MTAV_asign.sol --log utils_GLPK/logs/ejecucion_secundaria.log
Reading model section from utils_GLPK/modelos/MTAV_empate.mod...
utils_GLPK/modelos/MTAV_empate.mod:28: warning: final NL missing before end of file
utils_GLPK/modelos/MTAV_empate.mod:28: warning: unexpected end of file; missing end statement inserted
28 lines were read
Reading data section from utils_GLPK/datos/MTAV_pref_empate.dat...
utils_GLPK/datos/MTAV_pref_empate.dat:14: warning: final NL missing before end of file
14 lines were read
Generating s...
Generating unicaAsignacionCoperativista_mayorIgual...
Generating unicaAsignacionCoperativista_menorIgual...
Generating unicaAsignacionCasa_mayorIgual...
Generating unicaAsignacionCasa_menorIgual...
Generating z_menorIgual...
Model has been successfully generated
GLPK Integer Optimizer, v4.52
16 rows, 9 columns, 54 non-zeros
9 integer variables, all of which are binary
Preprocessing...
6 hidden packing inequaliti(es) were detected
10 rows, 4 columns, 20 non-zeros
4 integer variables, all of which are binary
Scaling...
 A: min|aij| =  1.000e+00  max|aij| =  1.000e+00  ratio =  1.000e+00
Problem data seem to be well scaled
Constructing initial basis...
Size of triangular part is 10
Solving LP relaxation...
GLPK Simplex Optimizer, v4.52
10 rows, 4 columns, 20 non-zeros
      0: obj =   2.000000000e+00  infeas =  4.000e+00 (0)
*     4: obj =   5.000000000e+00  infeas =  0.000e+00 (0)
*     7: obj =   5.000000000e+00  infeas =  0.000e+00 (0)
OPTIMAL LP SOLUTION FOUND
Integer optimization begins...
+     7: mip =     not found yet >=              -inf        (1; 0)
+     7: >>>>>   5.000000000e+00 >=   5.000000000e+00   0.0% (1; 0)
+     7: mip =   5.000000000e+00 >=     tree is empty   0.0% (0; 1)
INTEGER OPTIMAL SOLUTION FOUND
Time used:   0.0 secs
Memory used: 0.1 Mb (138455 bytes)
Writing MIP solution to `utils_GLPK/soluciones/MTAV_asign.sol'...
